
# ----------------- Variables Section -----------------
units           lj
boundary        f p p
atom_style      atomic
comm_modify     vel yes
newton          on

region          leftB block 0.0 5.039193729003359 0.0 11.198208286674133 0.0 11.198208286674133
region          rightB block 28.555431131019034 33.59462486002239 0.0 11.198208286674133 0.0 11.198208286674133
region          leftshear block 0.0 0.0 0.0 0.0 0.0 0.0 
region          rightshear block 0.0 0.0 0.0 0.0 0.0 0.0 
region          leftBin block 0.0 5.039193729003359 0.0 11.198208286674133 0.0 11.198208286674133
region          rightBin block 28.555431131019034 33.59462486002239 0.0 11.198208286674133 0.0 11.198208286674133
region          roi block 5.039193729003359 28.555431131019034 0.0 11.198208286674133 0.0 11.198208286674133

# ----------------- Interaction Section -----------------
pair_style      dpd 1.0 1.0 2796

# ----------------- Atom Definition Section -----------------
read_data       dpd_8map_obmd.data

# ----------------- Settings Section -----------------
pair_coeff      * * 209.6 4.5 1.0

neighbor        0.4 bin
neigh_modify    delay 0 every 1

timestep        0.001464

fix             1 all nve
fix             2 all obmd 1 1 6223 188.0 0.0 0.0 0.0 0.0 0.7 0.005 1327 &
                region1 leftB region2 rightB region3 leftshear & 
                region4 rightshear region5 leftBin region6 rightBin &
                buffersize 5.039193729003359 gfac 0.25 stepparallel 0 stepperp 1 &
                maxattempt 1 usher 1 31.03 1.0 0.02 10000 1.5 1.0 40 charged 0

comm_style      staggered zyx
fix             3 all balance/all every 100 grid staggered global 0.9 0.003

# ----------------- Compute Section -----------------

# temperature
group           roi_group dynamic all region roi
compute         temproi_1 roi_group temp/profile 1 1 1 x 50

# number density
compute         ndenprof all chunk/atom bin/1d x lower 1.1198208286674132 units box
fix             4 all ave/chunk 100 1 100 ndenprof density/number file nden_profile.out

# ----------------- Output Section -----------------
thermo          50
thermo_style    custom step time etotal pe ke temp press c_temproi_1 
# dump            out all yaml 100 trajectory.yaml id type x y z vx vy vz 
# dump_modify     out sort id pad 5 time yes thermo yes 

run             10000
    
